data;


param d:= 100;
param r:=5;
param p:=0.880000;
param M:=1000;
param U:=
         1         1       -5.386769e-02
         2         1        1.708562e+00
         3         1       -7.368928e-01
         4         1        2.339025e-01
         5         1       -1.340042e+00
         6         1       -2.796398e-01
         7         1       -2.092991e-01
         8         1       -1.606937e+00
         9         1       -7.926118e-01
        10         1        1.160247e+00
        11         1       -9.810785e-01
        12         1        7.609665e-01
        13         1        4.445589e-01
        14         1       -1.879872e-01
        15         1        1.346958e+00
        16         1        2.041406e-01
        17         1        2.744949e-02
        18         1        7.387628e-01
        19         1       -3.994162e-01
        20         1        3.857587e-01
        21         1        5.359195e-02
        22         1        2.927666e-01
        23         1        1.576603e+00
        24         1        3.005732e-01
        25         1       -4.889899e-01
        26         1       -9.653765e-02
        27         1        7.620239e-01
        28         1       -9.878006e-02
        29         1       -4.910130e-01
        30         1       -2.465640e+00
        31         1        7.658087e-01
        32         1       -8.277667e-01
        33         1        5.220751e-01
        34         1        2.629590e-01
        35         1        9.279214e-02
        36         1       -1.118014e-01
        37         1       -1.025619e+00
        38         1        4.007767e-01
        39         1       -3.311433e-02
        40         1        2.630812e-01
        41         1        1.059485e+00
        42         1       -5.499663e-01
        43         1       -9.385427e-01
        44         1       -2.946765e-01
        45         1       -1.259149e+00
        46         1       -4.749183e-02
        47         1       -1.025634e+00
        48         1       -3.284108e-01
        49         1       -1.788809e+00
        50         1        1.009399e+00
        51         1        1.096919e+00
        52         1        9.498562e-01
        53         1       -1.006834e+00
        54         1       -3.038063e-01
        55         1        5.363616e-01
        56         1       -1.499085e+00
        57         1        7.876608e-01
        58         1        7.145547e-01
        59         1       -1.918452e+00
        60         1        2.853608e-01
        61         1       -2.050350e+00
        62         1        1.361366e+00
        63         1       -1.174045e+00
        64         1        1.223858e+00
        65         1       -1.205227e+00
        66         1       -2.069981e+00
        67         1        5.965436e-01
        68         1       -2.106484e-01
        69         1        3.722793e-01
        70         1       -2.686738e-01
        71         1        1.727085e+00
        72         1        9.590207e-01
        73         1        6.734378e-01
        74         1        3.324536e-01
        75         1        1.765628e+00
        76         1        1.403121e+00
        77         1       -1.141047e+00
        78         1       -2.044523e-01
        79         1       -6.643533e-01
        80         1        7.941821e-01
        81         1        4.237056e-01
        82         1        7.325590e-01
        83         1       -1.268977e+00
        84         1       -1.049771e+00
        85         1        1.413486e+00
        86         1        1.470060e+00
        87         1        8.179077e-02
        88         1       -5.677530e-01
        89         1       -9.510621e-01
        90         1       -1.435035e+00
        91         1        2.395930e-01
        92         1        8.364006e-02
        93         1       -1.867278e+00
        94         1        3.237201e-01
        95         1        7.025733e-01
        96         1       -4.073640e-01
        97         1        5.455284e-01
        98         1        2.310297e+00
        99         1       -5.797713e-01
       100         1       -3.402995e-01
         1         2        1.182587e+00
         2         2        3.002437e-01
         3         2        2.512549e-01
         4         2       -1.669589e-01
         5         2       -1.094345e+00
         6         2       -2.539380e-01
         7         2        8.300817e-01
         8         2        9.145336e-01
         9         2       -1.697957e+00
        10         2        2.519473e-01
        11         2       -6.115755e-02
        12         2       -7.541088e-01
        13         2        8.593355e-01
        14         2       -1.152927e+00
        15         2       -2.233763e+00
        16         2        1.146979e+00
        17         2       -5.649790e-01
        18         2        8.233944e-01
        19         2       -2.715237e-01
        20         2        2.203045e+00
        21         2       -2.246867e-01
        22         2       -2.088920e+00
        23         2       -6.086448e-01
        24         2       -6.642560e-01
        25         2       -1.375025e+00
        26         2        7.279874e-01
        27         2        7.598240e-04
        28         2       -8.327238e-01
        29         2       -3.070207e-01
        30         2       -8.324943e-01
        31         2       -9.372148e-01
        32         2       -1.259500e+00
        33         2       -1.404713e+00
        34         2        2.685605e-01
        35         2        5.285567e-01
        36         2       -1.646690e+00
        37         2        1.459249e+00
        38         2       -6.676873e-01
        39         2        8.172068e-02
        40         2       -9.403005e-01
        41         2        4.503179e-01
        42         2        1.152894e+00
        43         2        1.864283e+00
        44         2       -9.451632e-01
        45         2       -2.116656e-01
        46         2       -4.365769e-01
        47         2       -2.331724e-01
        48         2        8.190523e-01
        49         2        6.603007e-01
        50         2       -4.522440e-02
        51         2       -9.094566e-02
        52         2       -8.752926e-01
        53         2       -1.009903e+00
        54         2       -1.142563e+00
        55         2        3.546265e-01
        56         2       -8.820025e-01
        57         2        5.174116e-02
        58         2        1.297961e+00
        59         2        8.361950e-01
        60         2        6.036997e-02
        61         2       -3.019017e+00
        62         2        2.699554e-01
        63         2       -1.011638e+00
        64         2        1.535712e+00
        65         2        2.917403e+00
        66         2        2.980912e-01
        67         2       -3.169600e-01
        68         2       -5.869821e-01
        69         2       -1.382096e+00
        70         2        2.516719e-01
        71         2       -9.320089e-01
        72         2        9.656881e-01
        73         2        1.845982e+00
        74         2        1.936216e+00
        75         2        5.104800e-01
        76         2        1.097545e-01
        77         2        2.153958e-01
        78         2       -2.797423e-03
        79         2       -1.662273e+00
        80         2        1.236064e+00
        81         2        1.909119e-01
        82         2       -5.104077e-01
        83         2        1.151008e-01
        84         2       -1.256407e+00
        85         2        5.219077e-01
        86         2        1.519311e-01
        87         2        3.312316e-01
        88         2       -1.701693e+00
        89         2        1.106784e+00
        90         2       -2.302030e+00
        91         2        1.511997e-01
        92         2        5.029722e-01
        93         2        6.029537e-01
        94         2        7.989818e-01
        95         2       -1.156255e+00
        96         2        6.140799e-01
        97         2       -9.180861e-03
        98         2        2.884439e-01
        99         2        9.697410e-01
       100         2       -3.737178e+00
         1         3       -1.067446e+00
         2         3       -7.873579e-01
         3         3        1.588293e+00
         4         3       -6.791158e-01
         5         3       -1.002668e+00
         6         3       -1.815765e+00
         7         3       -1.102856e+00
         8         3       -4.391607e-02
         9         3        4.653628e-02
        10         3        1.174447e-01
        11         3       -4.213997e-01
        12         3        1.316871e+00
        13         3       -8.088098e-01
        14         3       -5.788636e-01
        15         3       -1.081793e+00
        16         3        5.512092e-01
        17         3        8.538952e-01
        18         3       -4.020523e-01
        19         3        6.152215e-01
        20         3        2.297739e-01
        21         3        7.870068e-02
        22         3       -9.195737e-01
        23         3       -2.075072e+00
        24         3        4.802951e-01
        25         3        7.948460e-01
        26         3        7.095951e-01
        27         3        6.718011e-01
        28         3       -1.263366e+00
        29         3        3.475252e-01
        30         3        1.707275e-01
        31         3        1.660114e+00
        32         3       -1.164510e+00
        33         3       -1.255437e+00
        34         3        1.062562e-01
        35         3       -6.572470e-01
        36         3        1.085041e+00
        37         3        9.491748e-01
        38         3       -4.156122e-01
        39         3       -3.848751e-01
        40         3        5.003853e-01
        41         3        2.154669e+00
        42         3        1.365772e+00
        43         3        1.694505e+00
        44         3        1.383461e+00
        45         3        4.813129e-01
        46         3       -2.385409e-01
        47         3       -1.121181e+00
        48         3        1.902726e-01
        49         3        6.936567e-01
        50         3        5.406188e-01
        51         3       -1.374197e+00
        52         3        5.413643e-01
        53         3        2.993131e-01
        54         3       -1.673027e+00
        55         3        7.667431e-01
        56         3       -3.093106e-01
        57         3       -7.190551e-01
        58         3       -1.785699e-01
        59         3        1.396746e+00
        60         3       -8.060274e-01
        61         3       -2.633810e-01
        62         3       -5.794011e-01
        63         3        1.348734e-01
        64         3        1.027764e-01
        65         3       -7.070624e-01
        66         3        1.857215e+00
        67         3       -9.953329e-01
        68         3        6.717486e-01
        69         3       -2.081616e-01
        70         3        4.656721e-01
        71         3        1.583403e-01
        72         3        6.501671e-01
        73         3       -3.169435e-01
        74         3       -2.743103e-02
        75         3       -7.497236e-01
        76         3       -1.831292e+00
        77         3       -1.346736e+00
        78         3       -1.712729e+00
        79         3        1.366404e+00
        80         3       -8.384082e-01
        81         3       -1.079769e+00
        82         3       -1.230250e+00
        83         3       -1.204923e+00
        84         3       -1.066356e+00
        85         3       -5.991040e-01
        86         3        1.766092e+00
        87         3        2.580165e-01
        88         3       -5.063722e-01
        89         3       -8.899419e-01
        90         3        1.000063e+00
        91         3       -1.539544e+00
        92         3        8.768485e-02
        93         3        1.636597e-01
        94         3       -5.323609e-01
        95         3       -1.387238e+00
        96         3       -1.537591e-01
        97         3        4.998459e-01
        98         3       -1.002926e+00
        99         3       -1.463799e+00
       100         3        1.184725e+00
         1         4        1.261981e+00
         2         4        1.053583e+00
         3         4        6.144494e-01
         4         4       -5.556694e-01
         5         4        6.796709e-01
         6         4       -1.078928e+00
         7         4       -1.139551e+00
         8         4        5.585030e-01
         9         4       -7.555779e-01
        10         4        1.080309e+00
        11         4        6.751717e-01
        12         4        4.268095e-01
        13         4        6.301005e-01
        14         4       -1.169681e+00
        15         4       -9.855459e-01
        16         4       -6.618112e-01
        17         4        2.731387e+00
        18         4        1.555316e+00
        19         4       -5.514493e-01
        20         4        3.150302e-01
        21         4        2.551875e+00
        22         4       -4.216581e-01
        23         4       -1.967801e-01
        24         4        5.411446e-01
        25         4        3.025414e-02
        26         4       -2.432285e+00
        27         4        2.237766e-01
        28         4       -4.529009e-01
        29         4        8.749102e-01
        30         4        2.349128e+00
        31         4        1.130584e+00
        32         4        1.526130e+00
        33         4        3.887772e-01
        34         4       -3.601936e-01
        35         4        6.529887e-01
        36         4        7.856209e-01
        37         4        1.433937e+00
        38         4       -8.813548e-01
        39         4        1.107873e+00
        40         4        1.279807e+00
        41         4       -1.038930e+00
        42         4       -7.103424e-01
        43         4       -8.010807e-04
        44         4        4.517762e-01
        45         4        2.991554e-01
        46         4        5.125674e-01
        47         4       -1.148353e+00
        48         4       -6.927357e-01
        49         4        5.426490e-01
        50         4        1.752899e+00
        51         4        1.324677e+00
        52         4       -2.036093e-02
        53         4        2.009026e+00
        54         4        8.926059e-01
        55         4       -9.115563e-01
        56         4       -3.809691e-02
        57         4       -1.835831e+00
        58         4        4.125635e-01
        59         4       -2.642559e+00
        60         4       -1.493264e+00
        61         4        3.377398e-01
        62         4       -6.977051e-01
        63         4        1.584317e+00
        64         4        1.252277e+00
        65         4       -3.276497e-01
        66         4       -2.616188e-01
        67         4       -4.428252e-01
        68         4        2.132139e+00
        69         4       -4.871514e-01
        70         4        8.492298e-02
        71         4        6.021079e-01
        72         4        1.085075e+00
        73         4       -6.052399e-01
        74         4        2.224765e+00
        75         4       -1.840416e-01
        76         4       -1.150367e+00
        77         4        4.612199e-01
        78         4       -4.998925e-01
        79         4        1.122650e+00
        80         4       -9.534815e-01
        81         4       -1.039014e+00
        82         4        8.730654e-02
        83         4        4.842783e-01
        84         4       -1.517988e+00
        85         4       -1.010473e+00
        86         4        7.449651e-01
        87         4       -1.086490e+00
        88         4        1.403691e+00
        89         4       -9.373383e-02
        90         4        1.540845e+00
        91         4        1.272025e-01
        92         4       -1.130469e+00
        93         4       -1.542798e+00
        94         4        2.507509e-01
        95         4       -1.025638e+00
        96         4       -1.720002e+00
        97         4        3.473984e-01
        98         4        1.438442e+00
        99         4        1.082592e+00
       100         4       -3.876311e-01
         1         5        4.079571e-01
         2         5        1.053328e-01
         3         5        5.152800e-02
         4         5        2.278825e+00
         5         5        4.915348e-01
         6         5       -2.284635e-01
         7         5        1.137324e-01
         8         5        7.956976e-01
         9         5        5.885345e-01
        10         5        4.296290e-01
        11         5       -9.008733e-01
        12         5        8.528278e-01
        13         5       -8.619626e-01
        14         5        1.541788e+00
        15         5        1.429841e-01
        16         5        1.685509e-01
        17         5        6.703233e-01
        18         5       -6.474750e-01
        19         5       -4.093662e-01
        20         5       -6.671059e-02
        21         5        1.239786e-01
        22         5        6.199687e-01
        23         5        1.294268e+00
        24         5       -1.077578e+00
        25         5       -5.529511e-02
        26         5        2.461701e-01
        27         5        3.731789e-01
        28         5        8.556081e-01
        29         5       -4.328733e-01
        30         5        2.401633e+00
        31         5        1.946472e+00
        32         5       -1.568393e+00
        33         5       -1.702553e+00
        34         5        3.174646e+00
        35         5       -3.949617e-01
        36         5        1.668115e+00
        37         5       -1.830402e-01
        38         5        1.505601e-01
        39         5        6.190683e-02
        40         5       -5.640866e-01
        41         5        3.670100e-01
        42         5       -1.221433e+00
        43         5        1.831779e+00
        44         5       -2.476187e+00
        45         5        7.231926e-01
        46         5       -1.611233e+00
        47         5       -1.184665e+00
        48         5        5.136767e-01
        49         5       -7.177460e-02
        50         5        5.538858e-01
        51         5       -5.808623e-01
        52         5       -8.660750e-01
        53         5       -4.988167e-01
        54         5       -3.406327e-02
        55         5       -1.544198e+00
        56         5       -3.882573e-02
        57         5       -5.118249e-01
        58         5       -1.769865e-01
        59         5        1.835891e-02
        60         5        2.265295e-01
        61         5       -2.454308e-01
        62         5       -1.425014e+00
        63         5        2.146278e-01
        64         5       -8.216625e-01
        65         5        1.917813e-01
        66         5        4.156108e-01
        67         5       -2.682379e-01
        68         5        8.417001e-01
        69         5        1.286715e-01
        70         5       -6.075853e-01
        71         5       -6.184401e-01
        72         5        4.675132e-01
        73         5       -2.951628e-01
        74         5        2.477546e-01
        75         5       -5.345102e-01
        76         5       -1.106084e+00
        77         5        1.775092e-01
        78         5       -9.120375e-01
        79         5        1.045907e+00
        80         5       -2.503909e+00
        81         5        5.742144e-01
        82         5        7.223227e-01
        83         5       -2.454675e+00
        84         5       -5.730363e-01
        85         5       -2.586897e-01
        86         5       -7.097654e-01
        87         5       -3.277464e-01
        88         5        5.916280e-01
        89         5        1.577260e+00
        90         5        1.450317e+00
        91         5        5.396965e-01
        92         5       -1.986762e-01
        93         5       -1.308961e+00
        94         5       -1.465858e-01
        95         5       -1.271057e+00
        96         5        1.389606e+00
        97         5        1.966670e+00
        98         5       -1.367315e-01
        99         5        1.908459e-01
       100         5       -1.292655e+00
;

param theta:=
    1       -1.505052e+00
    2        8.767984e-02
    3        1.141416e+00
    4        3.438350e-01
    5        1.081430e+00
;
param X_true:=
    1       -1.585476e-01
    2       -2.967685e+00
    3        3.210988e+00
    4        1.131503e+00
    5        1.541675e+00
    6       -2.291977e+00
    7       -1.139854e+00
    8        3.501108e+00
    9        1.473828e+00
   10       -7.540274e-01
   11        2.481363e-01
   12        1.360709e+00
   13       -2.232428e+00
   14        7.862760e-01
   15       -3.642112e+00
   16        3.772059e-01
   17        2.547853e+00
   18       -1.664017e+00
   19        6.472504e-01
   20       -8.898114e-02
   21        1.000969e+00
   22       -1.147930e+00
   23       -3.462756e+00
   24       -9.416642e-01
   25        1.473248e+00
   26        4.489781e-01
   27        1.004942e-01
   28       -5.968131e-01
   29        9.414543e-01
   30        7.237706e+00
   31        3.153832e+00
   32       -1.365161e+00
   33       -4.049408e+00
   34        3.058373e+00
   35       -1.046109e+00
   36        3.336441e+00
   37        3.050054e+00
   38       -1.276340e+00
   39        6.557477e-02
   40       -7.722609e-02
   41        9.439525e-01
   42        9.225925e-01
   43        5.490817e+00
   44       -5.827490e-01
   45        3.310847e+00
   46       -1.805273e+00
   47       -1.432521e+00
   48        1.100589e+00
   49        3.650860e+00
   50        2.956034e-01
   51       -3.400117e+00
   52       -1.832007e+00
   53        1.919768e+00
   54       -1.282483e+00
   55       -1.884352e+00
   56        1.770730e+00
   57       -3.186401e+00
   58       -1.215005e+00
   59        3.666206e+00
   60       -1.612663e+00
   61        2.371260e+00
   62       -4.467543e+00
   63        2.609094e+00
   64       -2.048003e+00
   65        1.357416e+00
   66        5.620923e+00
   67       -2.504049e+00
   68        2.675659e+00
   69       -9.474314e-01
   70        3.300989e-01
   71       -2.962113e+00
   72        2.620757e-01
   73       -1.740769e+00
   74        6.709780e-01
   75       -4.109666e+00
   76       -5.784102e+00
   77        5.495829e-01
   78       -2.805655e+00
   79        3.930855e+00
   80       -5.079522e+00
   81       -1.589703e+00
   82       -1.740359e+00
   83       -1.943397e+00
   84       -8.889938e-01
   85       -3.392627e+00
   86       -6.947664e-01
   87       -5.275608e-01
   88        1.249755e+00
   89        2.186114e+00
   90        5.197662e+00
   91       -1.477223e+00
   92       -5.852465e-01
   93        1.104005e+00
   94       -1.097112e+00
   95       -4.469415e+00
   96        1.402808e+00
   97        1.994941e+00
   98       -4.249862e+00
   99       -1.345722e-01
  100        5.560246e-03
;
param X:=
    1       -6.439215e-01
    2       -1.072273e-01
    3        7.978847e-03
    4       -4.769072e-01
    5       -5.367992e-01
    6       -3.815715e-01
    7        8.935409e-01
    8        4.901768e-01
    9        1.473828e+00
   10       -1.429604e+00
   11       -6.153589e-01
   12        2.932049e-01
   13       -1.686629e+00
   14        1.998123e-01
   15       -3.642112e+00
   16        3.772059e-01
   17        1.399979e-01
   18       -4.408729e-01
   19       -6.285888e-02
   20       -4.625145e-01
   21        1.405252e+00
   22       -4.821488e-01
   23       -1.067438e+00
   24       -1.384347e+00
   25       -4.541515e-01
   26       -1.312371e+00
   27       -1.547087e+00
   28       -5.968131e-01
   29       -1.422854e+00
   30       -1.075481e+00
   31       -6.153776e-01
   32       -3.518963e-01
   33        4.391051e-02
   34        3.058373e+00
   35        2.638597e-01
   36        1.019312e-02
   37       -1.341136e+00
   38       -1.931979e+00
   39       -4.781140e-01
   40        1.486502e+00
   41       -1.991783e+00
   42       -1.398624e+00
   43       -9.689651e-02
   44        2.740662e-01
   45       -8.133986e-01
   46       -1.289355e+00
   47        5.370704e-01
   48       -3.541353e+00
   49       -1.512566e+00
   50        2.956034e-01
   51        2.198994e-01
   52        1.057370e+00
   53       -1.034213e+00
   54        4.541735e-01
   55        4.283886e-01
   56       -1.008275e+00
   57       -5.557906e-01
   58       -6.282436e-01
   59        2.409561e-01
   60        4.647773e-01
   61       -6.493251e-01
   62        3.927517e-01
   63        1.537300e+00
   64       -2.048003e+00
   65        1.357416e+00
   66        5.620923e+00
   67       -7.419508e-01
   68        9.471358e-01
   69        6.176071e-01
   70        3.300989e-01
   71       -1.871239e+00
   72        4.558925e-01
   73       -1.740769e+00
   74        1.057773e+00
   75       -2.513504e-01
   76        1.160167e+00
   77        1.275892e+00
   78       -1.322766e+00
   79       -5.891222e-02
   80        2.555483e+00
   81       -1.589703e+00
   82        7.210377e-01
   83        2.918869e-01
   84       -4.624995e-01
   85        2.688182e-01
   86        1.715551e+00
   87        9.582624e-01
   88        4.031714e-01
   89        2.533318e-01
   90        6.624468e-01
   91       -7.191036e-01
   92       -1.171741e+00
   93        8.304037e-01
   94        7.697308e-01
   95       -3.810157e-01
   96       -9.060262e-01
   97        1.031500e+00
   98       -7.358944e-01
   99        1.744996e-02
  100       -4.864683e-01
;
param outliervec:=
    1    1
    2    1
    3    1
    4    1
    5    1
    6    1
    7    1
    8    1
    9    0
   10    1
   11    1
   12    1
   13    1
   14    1
   15    0
   16    0
   17    1
   18    1
   19    1
   20    1
   21    1
   22    1
   23    1
   24    1
   25    1
   26    1
   27    1
   28    0
   29    1
   30    1
   31    1
   32    1
   33    1
   34    0
   35    1
   36    1
   37    1
   38    1
   39    1
   40    1
   41    1
   42    1
   43    1
   44    1
   45    1
   46    1
   47    1
   48    1
   49    1
   50    0
   51    1
   52    1
   53    1
   54    1
   55    1
   56    1
   57    1
   58    1
   59    1
   60    1
   61    1
   62    1
   63    1
   64    0
   65    0
   66    0
   67    1
   68    1
   69    1
   70    0
   71    1
   72    1
   73    0
   74    1
   75    1
   76    1
   77    1
   78    1
   79    1
   80    1
   81    0
   82    1
   83    1
   84    1
   85    1
   86    1
   87    1
   88    1
   89    1
   90    1
   91    1
   92    1
   93    1
   94    1
   95    1
   96    1
   97    1
   98    1
   99    1
  100    1
;